webassembly/ejemplos_results/14/folder14_json_57.txt
value = 14;
fgas = [1, 2, 1, 1, 1, 1, 1, 1, 1, 1, 1, 1, 1, 1];
fsize = [1, 1, 1, 1, 1, 1, 1, 1, 1, 1, 1, 1, 1, 1];
states = 
[|   in_0,   in_1,  in_2,  in_3,  in_4,  in_5,  in_6,  in_7,  in_8,  in_9, in_10, in_11, '.', '.', '.', '.', '.'
 | 's(0)',   in_1,  in_2,  in_3,  in_4,  in_5,  in_6,  in_7,  in_8,  in_9, in_10, in_11, '.', '.', '.', '.', '.'
 |   in_1,   in_2,  in_3,  in_4,  in_5,  in_6,  in_7,  in_8,  in_9, in_10, in_11,   '.', '.', '.', '.', '.', '.'
 |   in_2,   in_3,  in_4,  in_5,  in_6,  in_7,  in_8,  in_9, in_10, in_11,   '.',   '.', '.', '.', '.', '.', '.'
 | 's(4)',   in_2,  in_3,  in_4,  in_5,  in_6,  in_7,  in_8,  in_9, in_10, in_11,   '.', '.', '.', '.', '.', '.'
 |   in_2,   in_3,  in_4,  in_5,  in_6,  in_7,  in_8,  in_9, in_10, in_11,   '.',   '.', '.', '.', '.', '.', '.'
 |   in_3,   in_4,  in_5,  in_6,  in_7,  in_8,  in_9, in_10, in_11,   '.',   '.',   '.', '.', '.', '.', '.', '.'
 |   in_4,   in_5,  in_6,  in_7,  in_8,  in_9, in_10, in_11,   '.',   '.',   '.',   '.', '.', '.', '.', '.', '.'
 | 's(1)',   in_5,  in_6,  in_7,  in_8,  in_9, in_10, in_11,   '.',   '.',   '.',   '.', '.', '.', '.', '.', '.'
 |   in_5,   in_6,  in_7,  in_8,  in_9, in_10, in_11,   '.',   '.',   '.',   '.',   '.', '.', '.', '.', '.', '.'
 | 's(2)',   in_7,  in_8,  in_9, in_10, in_11,   '.',   '.',   '.',   '.',   '.',   '.', '.', '.', '.', '.', '.'
 |   in_9,   in_8, in_10, in_11,   '.',   '.',   '.',   '.',   '.',   '.',   '.',   '.', '.', '.', '.', '.', '.'
 | 's(3)',  in_10, in_11,   '.',   '.',   '.',   '.',   '.',   '.',   '.',   '.',   '.', '.', '.', '.', '.', '.'
 |  in_10,  in_11,   '.',   '.',   '.',   '.',   '.',   '.',   '.',   '.',   '.',   '.', '.', '.', '.', '.', '.'
 |   in_3, 's(4)',   '.',   '.',   '.',   '.',   '.',   '.',   '.',   '.',   '.',   '.', '.', '.', '.', '.', '.'
 |];
register_states = 
[| local_0, local_1, '.', '.', '.', '.', '.'
 | local_0, local_1, '.', '.', '.', '.', '.'
 | local_0, local_1, '.', '.', '.', '.', '.'
 | local_0,    in_1, '.', '.', '.', '.', '.'
 | local_0,    in_1, '.', '.', '.', '.', '.'
 | local_0,  's(4)', '.', '.', '.', '.', '.'
 | local_0,    in_2, '.', '.', '.', '.', '.'
 | local_0,    in_3, '.', '.', '.', '.', '.'
 | local_0,    in_3, '.', '.', '.', '.', '.'
 |  's(1)',    in_3, '.', '.', '.', '.', '.'
 |  's(1)',    in_3, '.', '.', '.', '.', '.'
 |  's(1)',    in_3, '.', '.', '.', '.', '.'
 |  's(1)',    in_3, '.', '.', '.', '.', '.'
 |  's(3)',    in_3, '.', '.', '.', '.', '.'
 |  's(3)',    in_3, '.', '.', '.', '.', '.'
 |];
program = [O('i32.load16_s_0'), POP, S(SET2), O('i32.const_0'), S(SET2), S(SET2), S(SET2), O('i32.load_5'), S(SET1), O('i32.sub_0'), O('i32.store_8'), O('i32.add_0'), S(SET1), O('i32.store16_11')];
% time elapsed: 0.54 s
----------
==========
% time elapsed: 0.66 s
% [value > 13]
